19977.0	51.0
18050.0	49.0
13382.0	38.0
13084.0	34.0
17050.0	44.0
12016.0	32.0
12341.0	33.0
10057.0	22.0
9905.0	18.0
9935.0	19.0
10001.0	21.0
10137.0	23.0
10655.0	30.0
10496.0	28.0
10511.0	29.0
10190.0	26.0
10486.0	27.0
10886.0	31.0
